cpu-bind=MASK - n2lcn0107, task  0  0 [1670965]: mask |--------|--------||--------|--------||--------|--------||------BB|BB------||||--------|--------||--------|--------||--------|--------||--------|--------|  set
started at Fri Mar 17 12:18:50 CET 2023
Timecheck 9945313.536849976
Set parameter TokenServer to value "license3.uni-paderborn.de"
Warning: Gurobi version mismatch between Python 10.0.1 and C library 10.0.0
Timecheck 9945313.553801408
Timecheck 9945313.554030448
Timecheck 9945313.554064048
Timecheck 9945313.554086648


####################################################################################################
Solve scenario sce_5_26_1 with free vessel operation using the arc flow model
Vessels can omit ports, Demands cannot be rejected
####################################################################################################
Data preprocessing, load /upb/departments/pc2/groups/hpc-prf-winf4/dwetzel/SILSRP/inst_final/sce_5_26_1
and create additional sets and parameters
	|- Read vessel information, number of vessels:	10
	|- Read node information, number of nodes:		554
	|- Read arc information
		|- Number of sailing arcs:			3104
		|- Number of transshipment arcs:	977
	|- Read container information
		|- Number of demands:		1239
		|- Number of empties (+/-):	227/251
	|- Create additional sets and parameters

Data preprocessing took 	00:00:00.739
####################################################################################################
Create linear model
Set parameter Threads to value 4
	|- Create variables, took	00:00:01.168
	|- Create objective, took	00:00:00.914
	|- Create constraints, took	00:00:03.379
	|- Load heuristic start

Creating model took	00:00:05.484
####################################################################################################
Fix start solution

Set parameter TimeLimit to value 6.4385224929502234e+04
Gurobi Optimizer version 10.0.0 build v10.0.0rc2 (linux64)

CPU model: AMD EPYC 7763 64-Core Processor, instruction set [SSE2|AVX|AVX2]
Thread count: 128 physical cores, 128 logical processors, using up to 4 threads

Optimize a model with 62288 rows, 290244 columns and 992137 nonzeros
Model fingerprint: 0x20050250
Variable types: 257422 continuous, 32822 integer (32822 binary)
Coefficient statistics:
  Matrix range     [1e+00, 2e+06]
  Objective range  [1e+00, 1e+00]
  Bounds range     [1e+00, 3e+02]
  RHS range        [1e+00, 9e+08]
Found heuristic solution: objective 8.956364e+08
Presolve removed 57800 rows and 278696 columns
Presolve time: 0.74s
Presolved: 4488 rows, 11548 columns, 34968 nonzeros
Found heuristic solution: objective 9.385788e+07
Variable types: 10489 continuous, 1059 integer (1052 binary)
Found heuristic solution: objective 9.346388e+07

Root relaxation: objective 3.634770e+07, 1418 iterations, 0.01 seconds (0.01 work units)

    Nodes    |    Current Node    |     Objective Bounds      |     Work
 Expl Unexpl |  Obj  Depth IntInf | Incumbent    BestBd   Gap | It/Node Time

*    0     0               0    3.634770e+07 3.6348e+07  0.00%     -    0s

Explored 1 nodes (1418 simplex iterations) in 0.84 seconds (0.62 work units)
Thread count was 4 (of 128 available processors)

Solution count 4: 3.63477e+07 9.34639e+07 9.38579e+07 8.95636e+08 

Optimal solution found (tolerance 1.00e-04)
Best objective 3.634769900000e+07, best bound 3.634769900000e+07, gap 0.0000%

Fixing start solution took	00:00:06.444
####################################################################################################
####################################################################################################
Solve optimization model

Set parameter TimeLimit to value 6.4384353246165439e+04
Gurobi Optimizer version 10.0.0 build v10.0.0rc2 (linux64)

CPU model: AMD EPYC 7763 64-Core Processor, instruction set [SSE2|AVX|AVX2]
Thread count: 128 physical cores, 128 logical processors, using up to 4 threads

Optimize a model with 61863 rows, 290244 columns and 991712 nonzeros
Model fingerprint: 0x2dd5fe38
Variable types: 257422 continuous, 32822 integer (32822 binary)
Coefficient statistics:
  Matrix range     [1e+00, 2e+06]
  Objective range  [1e+00, 1e+00]
  Bounds range     [1e+00, 3e+02]
  RHS range        [1e+00, 9e+08]

MIP start from previous solve produced solution with objective 3.63477e+07 (0.59s)
Loaded MIP start from previous solve with objective 3.63477e+07

Presolve removed 5562 rows and 6400 columns
Presolve time: 2.06s
Presolved: 56301 rows, 283844 columns, 830481 nonzeros
Variable types: 253209 continuous, 30635 integer (30635 binary)
Deterministic concurrent LP optimizer: primal simplex, dual simplex, and barrier
Showing barrier log only...

Root barrier log...

Ordering time: 3.43s

Barrier statistics:
 AA' NZ     : 7.676e+05
 Factor NZ  : 1.350e+07 (roughly 250 MB of memory)
 Factor Ops : 1.081e+10 (less than 1 second per iteration)
 Threads    : 2

                  Objective                Residual
Iter       Primal          Dual         Primal    Dual     Compl     Time
   0   2.76600267e+16 -2.50243231e+16  2.98e+10 8.32e+04  2.00e+14     8s
   1   7.95179703e+15 -5.84965861e+15  8.12e+09 5.61e+04  5.53e+13     8s
   2   7.08438529e+14 -1.20493276e+15  7.19e+08 1.44e+03  4.93e+12     8s
   3   6.47799963e+13 -3.90241630e+14  6.54e+07 7.01e-08  4.53e+11     9s
   4   1.54710052e+13 -1.18717608e+14  1.55e+07 1.97e-08  1.08e+11     9s
   5   2.27679077e+12 -3.88725329e+13  2.27e+06 4.89e-09  1.60e+10     9s
   6   3.00863029e+11 -1.09708056e+13  2.98e+05 6.52e-09  2.15e+09    10s
   7   2.82141637e+10 -3.25046121e+12  2.77e+04 5.82e-09  2.06e+08    10s
   8   3.72865252e+09 -2.04703741e+12  3.59e+03 1.30e-08  2.95e+07    11s
   9   8.58435580e+08 -1.28457858e+12  7.12e+02 2.98e-08  6.92e+06    11s
  10   4.57519015e+08 -6.78795486e+11  3.06e+02 1.63e-08  2.83e+06    12s
  11   2.76486964e+08 -3.68841384e+11  1.28e+02 6.98e-09  1.22e+06    12s
  12   1.99499220e+08 -2.57075095e+11  5.50e+01 1.08e-07  6.76e+05    12s
  13   1.62588361e+08 -1.54759901e+11  2.30e+01 2.98e-08  3.53e+05    13s
  14   1.33397743e+08 -6.98584694e+10  6.69e+00 1.17e-07  1.41e+05    13s
  15   1.02013324e+08 -2.89549503e+10  1.76e+00 1.06e-07  5.40e+04    13s
  16   8.89957799e+07 -1.12138070e+10  3.76e-01 6.33e-08  2.01e+04    14s
  17   7.36054144e+07 -4.14704911e+09  3.18e-02 2.24e-08  7.39e+03    14s
  18   6.34821242e+07 -7.04612298e+08  1.18e-03 9.82e-09  1.34e+03    14s
  19   5.32442778e+07 -2.57327572e+08  2.21e-04 1.42e-07  5.43e+02    15s
  20   4.54059096e+07 -9.21312091e+07  8.87e-05 6.39e-07  2.40e+02    15s
  21   3.97086797e+07 -4.02038147e+07  5.37e-05 2.07e-07  1.40e+02    16s
  22   3.50710845e+07 -1.89945675e+07  3.52e-05 2.07e-07  9.45e+01    16s
  23   3.25692566e+07 -8.61195994e+06  2.74e-05 1.95e-07  7.20e+01    16s
  24   2.99333225e+07 -2.55483732e+06  2.10e-05 9.49e-07  5.68e+01    17s
  25   2.70717984e+07  4.46524341e+06  1.38e-05 1.08e-06  3.95e+01    17s
  26   2.41697435e+07  8.16288371e+06  7.87e-06 1.67e-07  2.80e+01    17s
  27   2.19239879e+07  1.25976873e+07  3.91e-06 3.36e-07  1.63e+01    18s
  28   2.03571179e+07  1.55821040e+07  1.61e-06 3.25e-07  8.35e+00    18s
  29   1.94856576e+07  1.72084519e+07  6.78e-07 3.97e-07  3.98e+00    19s
  30   1.91141310e+07  1.81267903e+07  2.80e-07 8.97e-07  1.73e+00    19s
  31   1.89132702e+07  1.84562919e+07  9.69e-08 6.46e-07  7.99e-01    19s
  32   1.88409042e+07  1.85702577e+07  6.66e-08 1.81e-07  4.73e-01    20s
  33   1.88198114e+07  1.87351192e+07  3.18e-08 1.87e-07  1.48e-01    20s
  34   1.88021765e+07  1.87905468e+07  6.32e-09 6.47e-07  2.03e-02    20s
  35   1.87978169e+07  1.87941049e+07  1.81e-09 9.89e-07  6.49e-03    21s
  36   1.87964948e+07  1.87953480e+07  4.80e-10 1.18e-06  2.01e-03    21s
  37   1.87962632e+07  1.87960030e+07  1.93e-09 5.19e-07  4.55e-04    22s
  38   1.87961138e+07  1.87960995e+07  2.15e-09 8.85e-07  2.51e-05    22s
  39   1.87961060e+07  1.87961060e+07  9.33e-10 4.72e-06  5.48e-08    22s
  40   1.87961060e+07  1.87961060e+07  7.33e-08 1.31e-02  2.18e-09    23s

Barrier solved model in 40 iterations and 22.67 seconds (24.96 work units)
Optimal objective 1.87961060e+07


Root crossover log...

   48532 DPushes remaining with DInf 0.0000000e+00                23s
       0 DPushes remaining with DInf 0.0000000e+00                24s

    2829 PPushes remaining with PInf 0.0000000e+00                24s
       0 PPushes remaining with PInf 0.0000000e+00                24s

  Push phase complete: Pinf 0.0000000e+00, Dinf 1.2611925e-08     24s


Root simplex log...

Iteration    Objective       Primal Inf.    Dual Inf.      Time
   50126    1.8796106e+07   0.000000e+00   0.000000e+00     24s
Concurrent spin time: 4.04s (can be avoided by choosing Method=3)

Solved with barrier
   50126    1.8796106e+07   0.000000e+00   0.000000e+00     28s

Root relaxation: objective 1.879611e+07, 50126 iterations, 25.24 seconds (24.99 work units)
Total elapsed time = 31.30s
Total elapsed time = 37.33s
Total elapsed time = 41.05s

    Nodes    |    Current Node    |     Objective Bounds      |     Work
 Expl Unexpl |  Obj  Depth IntInf | Incumbent    BestBd   Gap | It/Node Time

     0     0 1.8796e+07    0 3423 3.6348e+07 1.8796e+07  48.3%     -   43s
     0     0 1.9974e+07    0 3309 3.6348e+07 1.9974e+07  45.0%     - 2564s
H    0     0                    3.630100e+07 1.9974e+07  45.0%     - 2565s
     0     0 2.0096e+07    0 3435 3.6301e+07 2.0096e+07  44.6%     - 3331s
     0     0 2.0096e+07    0 3430 3.6301e+07 2.0096e+07  44.6%     - 3339s
     0     0 2.0112e+07    0 3462 3.6301e+07 2.0112e+07  44.6%     - 4037s
     0     0 2.0112e+07    0 3483 3.6301e+07 2.0112e+07  44.6%     - 4041s
     0     0 2.0114e+07    0 3541 3.6301e+07 2.0114e+07  44.6%     - 4227s
     0     0 2.0114e+07    0 3541 3.6301e+07 2.0114e+07  44.6%     - 4242s
     0     0 2.0114e+07    0 3535 3.6301e+07 2.0114e+07  44.6%     - 4337s
     0     0 2.0114e+07    0 3489 3.6301e+07 2.0114e+07  44.6%     - 4606s
     0     0 2.0705e+07    0 3656 3.6301e+07 2.0705e+07  43.0%     - 6271s
     0     0 2.0705e+07    0 3661 3.6301e+07 2.0705e+07  43.0%     - 6447s
     0     0 2.1003e+07    0 3722 3.6301e+07 2.1003e+07  42.1%     - 8537s
     0     0 2.1003e+07    0 3823 3.6301e+07 2.1003e+07  42.1%     - 8732s
     0     0 2.1056e+07    0 3756 3.6301e+07 2.1056e+07  42.0%     - 10472s
     0     0 2.1056e+07    0 3839 3.6301e+07 2.1056e+07  42.0%     - 10642s
     0     0 2.1078e+07    0 3784 3.6301e+07 2.1078e+07  41.9%     - 12118s
     0     0 2.1078e+07    0 3872 3.6301e+07 2.1078e+07  41.9%     - 12317s
     0     0 2.1080e+07    0 3800 3.6301e+07 2.1080e+07  41.9%     - 13124s
     0     0 2.1080e+07    0 3842 3.6301e+07 2.1080e+07  41.9%     - 13279s
     0     0 2.1081e+07    0 3736 3.6301e+07 2.1081e+07  41.9%     - 14108s
     0     0 2.1081e+07    0 3855 3.6301e+07 2.1081e+07  41.9%     - 14344s
     0     0 2.1081e+07    0 3862 3.6301e+07 2.1081e+07  41.9%     - 14938s
     0     0 2.1081e+07    0 3766 3.6301e+07 2.1081e+07  41.9%     - 14992s
     0     0 2.1082e+07    0 3812 3.6301e+07 2.1082e+07  41.9%     - 15339s
     0     0 2.1082e+07    0 3843 3.6301e+07 2.1082e+07  41.9%     - 15550s
     0     0 2.1635e+07    0 3846 3.6301e+07 2.1635e+07  40.4%     - 19096s
     0     0 2.1635e+07    0 3849 3.6301e+07 2.1635e+07  40.4%     - 19404s
     0     0 2.1914e+07    0 3910 3.6301e+07 2.1914e+07  39.6%     - 24926s
     0     0 2.1914e+07    0 3873 3.6301e+07 2.1914e+07  39.6%     - 25258s
     0     0 2.2031e+07    0 3928 3.6301e+07 2.2031e+07  39.3%     - 31390s
     0     0 2.2031e+07    0 3983 3.6301e+07 2.2031e+07  39.3%     - 31724s
     0     0 2.2061e+07    0 4028 3.6301e+07 2.2061e+07  39.2%     - 34556s
     0     0 2.2061e+07    0 3981 3.6301e+07 2.2061e+07  39.2%     - 34741s
     0     0 2.2069e+07    0 4069 3.6301e+07 2.2069e+07  39.2%     - 36377s
     0     0 2.2069e+07    0 4027 3.6301e+07 2.2069e+07  39.2%     - 36639s
     0     0 2.2073e+07    0 4089 3.6301e+07 2.2073e+07  39.2%     - 37889s
     0     0 2.2073e+07    0 3964 3.6301e+07 2.2073e+07  39.2%     - 38218s
     0     0 2.2075e+07    0 3944 3.6301e+07 2.2075e+07  39.2%     - 39599s
     0     0 2.2075e+07    0 3978 3.6301e+07 2.2075e+07  39.2%     - 39844s
     0     0 2.2076e+07    0 4043 3.6301e+07 2.2076e+07  39.2%     - 40807s
     0     0 2.2076e+07    0 3987 3.6301e+07 2.2076e+07  39.2%     - 40956s
     0     0 2.2804e+07    0 4063 3.6301e+07 2.2804e+07  37.2%     - 62180s
     0     0 2.2804e+07    0 3947 3.6301e+07 2.2804e+07  37.2%     - 62638s

Cutting planes:
  Gomory: 4
  Cover: 4
  Implied bound: 406
  Clique: 6
  MIR: 582
  StrongCG: 3
  Flow cover: 2672
  GUB cover: 1
  RLT: 214
  Relax-and-lift: 209

Explored 1 nodes (5733197 simplex iterations) in 64384.39 seconds (60192.62 work units)
Thread count was 4 (of 128 available processors)

Solution count 2: 3.6301e+07 3.63477e+07 

Time limit reached
Best objective 3.630100100000e+07, best bound 2.280446303686e+07, gap 37.1795%

Solving took 	17:53:04.414
####################################################################################################
####################################################################################################
####################################################################################################
Reached timelimit, but could find a feasible solution
####################################################################################################
Description                          Value
----------------------------  ------------
Objective (min)               36,301,001.0
Cost sailing                  17,532,796.0
Cost port visits              15,442,835.0
Cost transshipment (demands)   1,306,113.0
Cost transshipment (empties)     511,158.0
Penalty delayed demands        2,276,374.0
Revenue Empties                3,641,675.0
Penalty rejected demands       2,873,400.0
Rejected demands (%)                  0.26
Omitted ports (%)                    23.57
Gap (%)                              37.18
####################################################################################################
Export solution
####################################################################################################
Overall time 	17:53:11.967

real	1073m13.567s
user	1071m57.853s
sys	0m38.126s
finished at Sat Mar 18 06:12:03 CET 2023
